<number of tasks>
50

<cycle time>
1000

<order strength>
0.197


<task times>
1 679
2 551
3 344
4 258
5 532
6 640
7 676
8 444
9 435
10 534
11 725
12 665
13 566
14 448
15 465
16 470
17 596
18 738
19 537
20 399
21 433
22 575
23 528
24 655
25 306
26 592
27 528
28 676
29 528
30 321
31 601
32 339
33 756
34 418
35 564
36 484
37 474
38 482
39 387
40 680
41 286
42 408
43 609
44 607
45 518
46 324
47 404
48 540
49 399
50 423

<precedence relations>
1,31
2,6
2,8
2,10
3,5
3,7
4,9
5,31
6,12
7,11
8,13
9,15
10,14
10,16
11,17
12,19
13,18
13,22
15,20
15,21
17,27
18,24
18,25
18,26
18,28
20,30
21,29
22,23
23,31
24,31
25,32
26,33
27,35
28,34
29,37
30,36
31,38
31,39
31,40
31,41
31,42
31,46
31,47
32,44
33,44
34,43
36,45
38,48
40,50
43,48
44,49

<end>
